benchmarks_CP/INST_36x36/25/inst36x36_25_18.dzn
S=6;
start=[|
-1,	-1,	-1,	33,	-1,	3,	18,	-1,	-1,	-1,	-1,	-1,	-1,	-1,	-1,	-1,	8,	-1,	-1,	-1,	-1,	-1,	-1,	-1,	-1,	-1,	-1,	-1,	25,	-1,	-1,	-1,	20,	-1,	-1,	-1|
25,	-1,	-1,	-1,	-1,	-1,	17,	-1,	-1,	-1,	-1,	-1,	-1,	-1,	-1,	-1,	-1,	4,	-1,	9,	-1,	-1,	-1,	2,	34,	-1,	-1,	-1,	-1,	-1,	-1,	3,	-1,	-1,	-1,	-1|
-1,	-1,	30,	-1,	-1,	-1,	-1,	-1,	-1,	-1,	-1,	20,	27,	-1,	19,	-1,	-1,	14,	-1,	-1,	13,	-1,	-1,	-1,	-1,	-1,	-1,	23,	1,	-1,	-1,	33,	-1,	21,	22,	-1|
27,	-1,	-1,	4,	-1,	-1,	-1,	-1,	12,	-1,	-1,	-1,	-1,	-1,	-1,	-1,	-1,	-1,	-1,	-1,	-1,	24,	-1,	-1,	-1,	-1,	-1,	-1,	-1,	-1,	-1,	-1,	-1,	-1,	-1,	-1|
-1,	-1,	-1,	-1,	-1,	-1,	-1,	-1,	-1,	-1,	-1,	-1,	-1,	15,	-1,	-1,	-1,	-1,	-1,	-1,	-1,	-1,	-1,	-1,	-1,	-1,	13,	-1,	-1,	-1,	19,	17,	26,	23,	-1,	-1|
-1,	8,	-1,	-1,	14,	-1,	-1,	-1,	-1,	-1,	13,	23,	26,	-1,	-1,	-1,	32,	28,	15,	-1,	20,	19,	22,	-1,	-1,	-1,	5,	-1,	6,	-1,	-1,	-1,	-1,	-1,	-1,	-1|
35,	-1,	-1,	-1,	-1,	-1,	-1,	24,	-1,	20,	16,	-1,	-1,	6,	-1,	-1,	-1,	-1,	-1,	22,	-1,	-1,	-1,	-1,	-1,	-1,	-1,	-1,	21,	-1,	-1,	-1,	-1,	-1,	-1,	-1|
-1,	-1,	18,	-1,	-1,	-1,	-1,	-1,	-1,	1,	-1,	-1,	-1,	17,	-1,	12,	-1,	-1,	-1,	-1,	-1,	11,	-1,	31,	-1,	22,	-1,	-1,	-1,	-1,	-1,	-1,	29,	30,	-1,	-1|
-1,	-1,	-1,	5,	-1,	-1,	-1,	-1,	-1,	-1,	-1,	-1,	-1,	8,	-1,	26,	24,	-1,	-1,	-1,	-1,	-1,	-1,	-1,	-1,	-1,	-1,	12,	-1,	-1,	-1,	16,	-1,	22,	11,	-1|
1,	-1,	-1,	22,	-1,	-1,	5,	-1,	29,	7,	-1,	3,	-1,	9,	34,	-1,	-1,	-1,	23,	-1,	-1,	2,	-1,	-1,	-1,	-1,	-1,	-1,	18,	-1,	32,	35,	-1,	13,	15,	26|
-1,	-1,	-1,	-1,	28,	-1,	8,	32,	31,	-1,	9,	-1,	-1,	-1,	-1,	-1,	-1,	-1,	-1,	-1,	-1,	-1,	-1,	24,	26,	-1,	-1,	-1,	-1,	-1,	-1,	12,	-1,	-1,	-1,	-1|
-1,	-1,	-1,	-1,	23,	-1,	-1,	-1,	-1,	35,	30,	-1,	-1,	-1,	1,	-1,	36,	-1,	-1,	6,	-1,	26,	16,	13,	7,	-1,	-1,	5,	32,	-1,	-1,	-1,	-1,	-1,	8,	-1|
-1,	-1,	14,	-1,	-1,	-1,	-1,	-1,	-1,	-1,	-1,	-1,	-1,	19,	23,	16,	-1,	30,	-1,	-1,	-1,	28,	-1,	-1,	-1,	-1,	-1,	-1,	-1,	32,	-1,	-1,	33,	-1,	-1,	-1|
4,	-1,	34,	-1,	19,	-1,	-1,	28,	-1,	9,	8,	-1,	-1,	-1,	7,	-1,	-1,	-1,	-1,	16,	-1,	-1,	-1,	-1,	33,	-1,	15,	21,	-1,	13,	-1,	-1,	10,	-1,	27,	23|
-1,	35,	10,	-1,	33,	-1,	-1,	-1,	-1,	-1,	-1,	-1,	-1,	-1,	-1,	-1,	-1,	36,	-1,	-1,	23,	-1,	-1,	6,	22,	9,	-1,	-1,	-1,	-1,	1,	-1,	-1,	8,	19,	-1|
-1,	12,	-1,	-1,	-1,	-1,	-1,	-1,	-1,	21,	-1,	-1,	-1,	-1,	31,	-1,	-1,	-1,	-1,	-1,	-1,	20,	-1,	-1,	-1,	-1,	24,	-1,	17,	-1,	-1,	-1,	-1,	-1,	-1,	4|
-1,	-1,	-1,	-1,	-1,	7,	12,	-1,	-1,	-1,	-1,	-1,	-1,	20,	-1,	-1,	-1,	21,	-1,	31,	-1,	-1,	-1,	-1,	-1,	1,	-1,	-1,	-1,	-1,	-1,	30,	-1,	-1,	36,	-1|
28,	-1,	-1,	-1,	-1,	-1,	-1,	-1,	-1,	-1,	-1,	29,	-1,	-1,	-1,	-1,	33,	-1,	-1,	-1,	-1,	-1,	-1,	-1,	-1,	23,	34,	-1,	-1,	-1,	-1,	-1,	-1,	15,	-1,	-1|
-1,	16,	-1,	-1,	-1,	-1,	25,	31,	-1,	-1,	-1,	-1,	-1,	-1,	33,	4,	-1,	-1,	-1,	-1,	14,	-1,	-1,	-1,	9,	-1,	-1,	-1,	-1,	8,	24,	-1,	-1,	-1,	21,	-1|
-1,	-1,	36,	-1,	-1,	-1,	-1,	-1,	8,	-1,	-1,	-1,	-1,	-1,	-1,	-1,	-1,	-1,	-1,	-1,	-1,	30,	-1,	-1,	28,	-1,	-1,	22,	-1,	-1,	-1,	-1,	-1,	-1,	-1,	-1|
-1,	-1,	-1,	-1,	4,	28,	-1,	-1,	-1,	19,	-1,	-1,	-1,	-1,	-1,	-1,	-1,	-1,	-1,	-1,	-1,	-1,	-1,	-1,	-1,	-1,	-1,	13,	24,	-1,	-1,	-1,	-1,	6,	-1,	-1|
31,	24,	3,	-1,	-1,	14,	36,	-1,	-1,	32,	-1,	-1,	7,	-1,	-1,	-1,	-1,	-1,	29,	-1,	-1,	-1,	-1,	-1,	-1,	-1,	-1,	-1,	-1,	-1,	-1,	-1,	-1,	-1,	-1,	-1|
-1,	-1,	7,	-1,	-1,	-1,	13,	-1,	16,	-1,	-1,	-1,	-1,	-1,	30,	-1,	-1,	25,	-1,	32,	-1,	-1,	-1,	-1,	-1,	-1,	36,	-1,	-1,	-1,	-1,	-1,	-1,	-1,	-1,	-1|
-1,	-1,	-1,	-1,	-1,	-1,	-1,	-1,	-1,	-1,	-1,	-1,	-1,	-1,	-1,	-1,	-1,	-1,	-1,	-1,	-1,	21,	36,	-1,	-1,	-1,	-1,	-1,	-1,	20,	-1,	-1,	-1,	10,	-1,	-1|
8,	-1,	-1,	-1,	-1,	-1,	-1,	-1,	-1,	-1,	-1,	21,	-1,	7,	-1,	-1,	3,	24,	34,	-1,	-1,	9,	-1,	16,	-1,	28,	-1,	18,	-1,	14,	17,	-1,	12,	-1,	-1,	33|
-1,	26,	-1,	-1,	-1,	11,	14,	-1,	-1,	-1,	-1,	-1,	-1,	-1,	2,	25,	-1,	-1,	-1,	30,	-1,	-1,	8,	7,	-1,	-1,	-1,	-1,	-1,	-1,	-1,	-1,	28,	-1,	-1,	-1|
-1,	-1,	-1,	-1,	-1,	-1,	30,	27,	-1,	11,	1,	-1,	6,	-1,	-1,	-1,	-1,	-1,	2,	-1,	-1,	-1,	-1,	-1,	-1,	-1,	-1,	-1,	7,	-1,	-1,	20,	-1,	3,	13,	-1|
2,	-1,	32,	6,	7,	-1,	-1,	-1,	-1,	-1,	-1,	-1,	-1,	-1,	22,	-1,	-1,	-1,	-1,	-1,	-1,	-1,	-1,	-1,	10,	-1,	-1,	33,	19,	-1,	-1,	-1,	-1,	18,	23,	-1|
-1,	-1,	-1,	25,	-1,	-1,	-1,	7,	28,	-1,	31,	24,	-1,	10,	-1,	-1,	18,	-1,	-1,	3,	-1,	-1,	4,	1,	35,	-1,	-1,	-1,	-1,	-1,	-1,	-1,	-1,	-1,	-1,	30|
-1,	-1,	-1,	-1,	-1,	-1,	32,	-1,	-1,	-1,	-1,	-1,	-1,	23,	-1,	-1,	-1,	-1,	-1,	33,	-1,	13,	18,	20,	-1,	-1,	-1,	1,	-1,	3,	26,	-1,	-1,	2,	-1,	-1|
-1,	-1,	-1,	7,	-1,	-1,	-1,	14,	26,	-1,	-1,	-1,	21,	2,	-1,	17,	-1,	29,	-1,	-1,	-1,	-1,	-1,	30,	-1,	-1,	23,	-1,	-1,	-1,	33,	-1,	-1,	-1,	-1,	24|
-1,	-1,	25,	-1,	-1,	-1,	-1,	19,	32,	12,	-1,	7,	-1,	-1,	-1,	-1,	-1,	-1,	-1,	-1,	-1,	-1,	26,	-1,	11,	8,	-1,	-1,	-1,	28,	-1,	21,	-1,	-1,	-1,	-1|
-1,	-1,	2,	32,	29,	-1,	-1,	-1,	-1,	-1,	-1,	-1,	-1,	-1,	-1,	33,	-1,	-1,	-1,	27,	-1,	-1,	-1,	-1,	-1,	19,	-1,	-1,	-1,	-1,	-1,	23,	36,	-1,	25,	-1|
-1,	4,	-1,	3,	-1,	-1,	10,	-1,	-1,	-1,	-1,	-1,	-1,	-1,	27,	-1,	-1,	-1,	-1,	-1,	24,	-1,	-1,	-1,	25,	-1,	-1,	-1,	-1,	-1,	-1,	-1,	31,	-1,	20,	-1|
-1,	-1,	-1,	28,	-1,	-1,	-1,	-1,	-1,	-1,	-1,	-1,	-1,	32,	-1,	-1,	-1,	20,	-1,	-1,	18,	-1,	-1,	-1,	1,	-1,	-1,	4,	-1,	-1,	-1,	-1,	-1,	-1,	5,	9|
-1,	-1,	-1,	8,	-1,	-1,	-1,	-1,	20,	5,	-1,	-1,	3,	-1,	-1,	-1,	-1,	34,	-1,	-1,	-1,	-1,	-1,	-1,	14,	-1,	9,	-1,	26,	-1,	-1,	-1,	32,	-1,	-1,	17|];
